Geographic Exponential Decay
80 127 153 143 202 161 236 251 177 303 71 40 229 53 311 313 310 93 21 208 304 155 75 73 217 13 120 31 160 39 179 207 164 68 154 172 60 235 249 18 109 139 64 41 219 252 6 54 210 124 27 233 301 169 133 248 80 243 265 206 228 59 180 250 42 147 113 78 4 215 159 91 2 149 66 142 141 289 273 223 118
p edge 320 323
e 0 187 1.0
e 0 296 7.0
e 1 33 1.0
e 1 0 35.0
e 2 178 26.0
e 2 223 42.0
e 2 208 47.0
e 2 1 88.0
e 3 167 4.0
e 3 2 24.0
e 4 294 48.0
e 4 284 58.0
e 4 278 39.0
e 4 3 62.0
e 5 86 1.0
e 5 4 15.0
e 6 143 17.0
e 6 191 99.0
e 6 56 7.0
e 6 5 57.0
e 7 214 4.0
e 7 6 42.0
e 8 153 73.0
e 8 7 4.0
e 9 18 42.0
e 10 155 18.0
e 11 238 1.0
e 11 8 2.0
e 12 135 2.0
e 12 11 2.0
e 13 188 61.0
e 13 168 7.0
e 13 220 88.0
e 13 12 43.0
e 14 190 1.0
e 14 13 24.0
e 15 219 70.0
e 15 14 4.0
e 16 83 3.0
e 16 15 5.0
e 17 91 8.0
e 18 142 85.0
e 18 109 69.0
e 19 64 46.0
e 19 16 3.0
e 20 34 10.0
e 20 19 7.0
e 21 308 89.0
e 21 75 38.0
e 21 195 66.0
e 22 146 12.0
e 22 20 24.0
e 23 256 1.0
e 23 22 7.0
e 24 229 21.0
e 25 179 63.0
e 26 251 22.0
e 27 203 79.0
e 27 204 86.0
e 27 45 61.0
e 28 136 1.0
e 28 23 2.0
e 29 245 4.0
e 29 28 1.0
e 30 147 85.0
e 31 314 71.0
e 31 232 2.0
e 31 268 2.0
e 31 29 35.0
e 32 111 2.0
e 32 31 84.0
e 35 110 1.0
e 35 32 1.0
e 36 228 24.0
e 37 57 10.0
e 37 35 1.0
e 38 285 2.0
e 38 37 1.0
e 39 113 69.0
e 39 124 50.0
e 39 279 92.0
e 40 170 5.0
e 40 115 79.0
e 40 41 55.0
e 40 38 38.0
e 41 132 90.0
e 41 189 39.0
e 42 193 70.0
e 42 162 15.0
e 42 90 64.0
e 42 40 49.0
e 43 116 5.0
e 43 42 5.0
e 44 46 1.0
e 44 43 1.0
e 47 226 4.0
e 47 44 2.0
e 48 270 1.0
e 48 47 1.0
e 49 196 1.0
e 49 48 3.0
e 50 51 10.0
e 50 49 12.0
e 52 93 84.0
e 52 50 8.0
e 53 203 22.0
e 53 54 52.0
e 53 131 77.0
e 54 208 46.0
e 54 228 11.0
e 55 130 9.0
e 55 52 2.0
e 58 133 96.0
e 59 62 61.0
e 59 241 44.0
e 59 286 23.0
e 59 55 84.0
e 60 222 82.0
e 60 133 86.0
e 60 224 79.0
e 61 63 4.0
e 61 59 94.0
e 64 65 37.0
e 64 315 3.0
e 66 155 89.0
e 66 197 58.0
e 66 230 55.0
e 67 172 86.0
e 67 61 2.0
e 68 69 33.0
e 68 307 91.0
e 68 287 50.0
e 68 67 46.0
e 70 117 1.0
e 70 68 21.0
e 71 288 29.0
e 71 186 15.0
e 71 76 80.0
e 71 70 27.0
e 72 96 9.0
e 72 71 73.0
e 73 147 50.0
e 73 75 99.0
e 73 194 55.0
e 74 160 71.0
e 75 248 70.0
e 77 78 68.0
e 77 72 5.0
e 78 123 61.0
e 78 79 88.0
e 80 179 61.0
e 80 112 27.0
e 80 133 7.0
e 81 113 36.0
e 82 120 94.0
e 82 77 3.0
e 84 103 2.0
e 84 82 5.0
e 85 242 11.0
e 85 84 3.0
e 87 88 12.0
e 87 85 13.0
e 89 182 9.0
e 89 87 6.0
e 91 219 76.0
e 91 92 22.0
e 93 107 26.0
e 93 95 8.0
e 94 246 1.0
e 94 89 4.0
e 97 98 1.0
e 97 94 1.0
e 99 100 2.0
e 99 97 1.0
e 101 102 3.0
e 101 99 3.0
e 104 169 54.0
e 104 101 2.0
e 105 298 9.0
e 105 104 3.0
e 106 292 1.0
e 106 105 8.0
e 108 202 85.0
e 109 124 12.0
e 109 302 41.0
e 113 147 58.0
e 114 118 17.0
e 114 106 1.0
e 118 185 83.0
e 118 119 66.0
e 120 121 55.0
e 120 122 41.0
e 124 125 67.0
e 126 127 73.0
e 127 128 18.0
e 127 250 8.0
e 129 184 2.0
e 129 114 2.0
e 134 148 1.0
e 134 129 1.0
e 137 252 59.0
e 137 134 5.0
e 138 171 3.0
e 138 137 5.0
e 139 236 63.0
e 139 140 75.0
e 139 239 3.0
e 139 138 42.0
e 141 142 57.0
e 141 179 72.0
e 141 143 47.0
e 142 143 44.0
e 144 313 57.0
e 144 311 97.0
e 145 235 57.0
e 145 139 12.0
e 149 205 55.0
e 149 150 7.0
e 149 266 1.0
e 149 145 32.0
e 151 192 3.0
e 151 149 83.0
e 152 153 41.0
e 153 154 20.0
e 154 155 45.0
e 154 289 81.0
e 156 157 6.0
e 156 151 5.0
e 158 159 14.0
e 159 160 84.0
e 159 198 10.0
e 160 161 5.0
e 161 163 100.0
e 161 164 31.0
e 164 165 63.0
e 164 219 78.0
e 166 274 1.0
e 166 156 2.0
e 169 174 1.0
e 169 277 99.0
e 172 173 74.0
e 172 175 92.0
e 176 177 26.0
e 177 180 91.0
e 177 303 80.0
e 180 208 90.0
e 180 181 97.0
e 183 289 80.0
e 185 262 35.0
e 199 200 2.0
e 199 166 3.0
e 201 218 2.0
e 201 199 5.0
e 202 206 90.0
e 202 225 13.0
e 206 254 16.0
e 206 311 29.0
e 207 212 35.0
e 207 312 1.0
e 207 209 27.0
e 207 201 39.0
e 210 258 49.0
e 210 211 30.0
e 210 213 57.0
e 210 207 11.0
e 215 216 33.0
e 215 259 43.0
e 215 217 64.0
e 215 210 15.0
e 217 267 82.0
e 217 221 30.0
e 223 305 11.0
e 223 227 17.0
e 228 229 29.0
e 229 231 81.0
e 233 293 23.0
e 233 234 79.0
e 233 235 83.0
e 235 260 52.0
e 236 237 79.0
e 236 240 69.0
e 243 244 49.0
e 243 309 53.0
e 243 247 83.0
e 244 248 82.0
e 248 249 28.0
e 249 250 74.0
e 249 251 36.0
e 250 251 89.0
e 252 253 7.0
e 252 280 84.0
e 255 257 6.0
e 255 215 81.0
e 261 263 3.0
e 261 255 1.0
e 264 265 94.0
e 265 267 5.0
e 265 269 68.0
e 271 272 3.0
e 271 261 2.0
e 273 275 65.0
e 273 276 63.0
e 273 281 53.0
e 273 271 4.0
e 282 283 3.0
e 282 273 63.0
e 289 290 93.0
e 291 313 91.0
e 295 297 1.0
e 295 282 3.0
e 299 300 1.0
e 299 295 3.0
e 301 310 95.0
e 301 303 99.0
e 301 304 5.0
e 303 304 16.0
e 304 306 48.0
e 310 311 42.0
e 310 313 21.0
e 316 317 1.0
e 316 299 1.0
e 318 319 1.0
e 318 316 2.0
